
(set-logic ALL) 

(declare-datatype MyList ((Nil) (Cons (head Real) (tail MyList)) )) 
(declare-fun l0 () MyList) 
(declare-fun l1 () MyList) 
(declare-fun l2 () MyList) 
(declare-fun l3 () MyList) 
(declare-fun i0 () Real) 
(declare-fun i1 () Real) 
(assert (is-Cons Nil) )
(assert (is-Cons Nil) )
(assert (not (= l0 l0)) )
(assert (= l2 l0) )
(assert (= l0 l2) )
(assert (not (= l0 Nil)) )
(assert (= l2 l0) )
(assert (and (= l1 Nil) (= l3 l1) (= l1 l3)) )
(check-sat)
